FigureN_BDM_unperturbed_2D_slab
1.0
      5.5000978821      0.0000000000      0.0000000000
      0.0000000000     11.0001957642      0.0000000000
      0.0000000000      0.0000000000     11.0001957642
  Ce  O
  16  31
Direct
      0.0000000000      0.0000000000      0.0000000000
      0.0000000000      0.2500000000      0.2500000000
      0.5000000000      0.0000000000      0.2500000000
      0.5000000000      0.2500000000      0.0000000000
      0.0000000000      0.0000000000      0.5000000000
      0.0000000000      0.2500000000      0.7500000000
      0.5000000000      0.0000000000      0.7500000000
      0.5000000000      0.2500000000      0.5000000000
      0.0000000000      0.5000000000      0.0000000000
      0.0000000000      0.7500000000      0.2500000000
      0.5000000000      0.5000000000      0.2500000000
      0.5000000000      0.7500000000      0.0000000000
      0.0000000000      0.5000000000      0.5000000000
      0.0000000000      0.7500000000      0.7500000000
      0.5000000000      0.5000000000      0.7500000000
      0.5000000000      0.7500000000      0.5000000000
      0.2500000000      0.1250000000      0.1250000000
      0.2500000000      0.1250000000      0.3750000000
      0.2500000000      0.3750000000      0.1250000000
      0.7500000000      0.1250000000      0.1250000000
      0.2500000000      0.3750000000      0.3750000000
      0.7500000000      0.1250000000      0.3750000000
      0.7500000000      0.3750000000      0.1250000000
      0.7500000000      0.3750000000      0.3750000000
      0.2500000000      0.1250000000      0.6250000000
      0.2500000000      0.1250000000      0.8750000000
      0.2500000000      0.3750000000      0.6250000000
      0.7500000000      0.1250000000      0.6250000000
      0.2500000000      0.3750000000      0.8750000000
      0.7500000000      0.1250000000      0.8750000000
      0.7500000000      0.3750000000      0.6250000000
      0.7500000000      0.3750000000      0.8750000000
      0.2500000000      0.6250000000      0.1250000000
      0.2500000000      0.6250000000      0.3750000000
      0.2500000000      0.8750000000      0.1250000000
      0.7500000000      0.6250000000      0.1250000000
      0.2500000000      0.8750000000      0.3750000000
      0.7500000000      0.6250000000      0.3750000000
      0.7500000000      0.8750000000      0.1250000000
      0.7500000000      0.8750000000      0.3750000000
      0.2500000000      0.6250000000      0.8750000000
      0.2500000000      0.8750000000      0.6250000000
      0.7500000000      0.6250000000      0.6250000000
      0.2500000000      0.8750000000      0.8750000000
      0.7500000000      0.6250000000      0.8750000000
      0.7500000000      0.8750000000      0.6250000000
      0.7500000000      0.8750000000      0.8750000000
