FigureN_pristine_CeO2_3D_lattice
1.0
     11.0001957642      0.0000000000      0.0000000000
      0.0000000000     11.0001957642      0.0000000000
      0.0000000000      0.0000000000     11.0001957642
  Ce  O
  32  64
Direct
      0.0000000000      0.0000000000      0.0000000000
      0.0000000000      0.2500000000      0.2500000000
      0.2500000000      0.0000000000      0.2500000000
      0.2500000000      0.2500000000      0.0000000000
      0.0000000000      0.0000000000      0.5000000000
      0.0000000000      0.2500000000      0.7500000000
      0.2500000000      0.0000000000      0.7500000000
      0.2500000000      0.2500000000      0.5000000000
      0.0000000000      0.5000000000      0.0000000000
      0.0000000000      0.7500000000      0.2500000000
      0.2500000000      0.5000000000      0.2500000000
      0.2500000000      0.7500000000      0.0000000000
      0.0000000000      0.5000000000      0.5000000000
      0.0000000000      0.7500000000      0.7500000000
      0.2500000000      0.5000000000      0.7500000000
      0.2500000000      0.7500000000      0.5000000000
      0.5000000000      0.0000000000      0.0000000000
      0.5000000000      0.2500000000      0.2500000000
      0.7500000000      0.0000000000      0.2500000000
      0.7500000000      0.2500000000      0.0000000000
      0.5000000000      0.0000000000      0.5000000000
      0.5000000000      0.2500000000      0.7500000000
      0.7500000000      0.0000000000      0.7500000000
      0.7500000000      0.2500000000      0.5000000000
      0.5000000000      0.5000000000      0.0000000000
      0.5000000000      0.7500000000      0.2500000000
      0.7500000000      0.5000000000      0.2500000000
      0.7500000000      0.7500000000      0.0000000000
      0.5000000000      0.5000000000      0.5000000000
      0.5000000000      0.7500000000      0.7500000000
      0.7500000000      0.5000000000      0.7500000000
      0.7500000000      0.7500000000      0.5000000000
      0.1250000000      0.1250000000      0.1250000000
      0.1250000000      0.1250000000      0.3750000000
      0.1250000000      0.3750000000      0.1250000000
      0.3750000000      0.1250000000      0.1250000000
      0.1250000000      0.3750000000      0.3750000000
      0.3750000000      0.1250000000      0.3750000000
      0.3750000000      0.3750000000      0.1250000000
      0.3750000000      0.3750000000      0.3750000000
      0.1250000000      0.1250000000      0.6250000000
      0.1250000000      0.1250000000      0.8750000000
      0.1250000000      0.3750000000      0.6250000000
      0.3750000000      0.1250000000      0.6250000000
      0.1250000000      0.3750000000      0.8750000000
      0.3750000000      0.1250000000      0.8750000000
      0.3750000000      0.3750000000      0.6250000000
      0.3750000000      0.3750000000      0.8750000000
      0.1250000000      0.6250000000      0.1250000000
      0.1250000000      0.6250000000      0.3750000000
      0.1250000000      0.8750000000      0.1250000000
      0.3750000000      0.6250000000      0.1250000000
      0.1250000000      0.8750000000      0.3750000000
      0.3750000000      0.6250000000      0.3750000000
      0.3750000000      0.8750000000      0.1250000000
      0.3750000000      0.8750000000      0.3750000000
      0.1250000000      0.6250000000      0.6250000000
      0.1250000000      0.6250000000      0.8750000000
      0.1250000000      0.8750000000      0.6250000000
      0.3750000000      0.6250000000      0.6250000000
      0.1250000000      0.8750000000      0.8750000000
      0.3750000000      0.6250000000      0.8750000000
      0.3750000000      0.8750000000      0.6250000000
      0.3750000000      0.8750000000      0.8750000000
      0.6250000000      0.1250000000      0.1250000000
      0.6250000000      0.1250000000      0.3750000000
      0.6250000000      0.3750000000      0.1250000000
      0.8750000000      0.1250000000      0.1250000000
      0.6250000000      0.3750000000      0.3750000000
      0.8750000000      0.1250000000      0.3750000000
      0.8750000000      0.3750000000      0.1250000000
      0.8750000000      0.3750000000      0.3750000000
      0.6250000000      0.1250000000      0.6250000000
      0.6250000000      0.1250000000      0.8750000000
      0.6250000000      0.3750000000      0.6250000000
      0.8750000000      0.1250000000      0.6250000000
      0.6250000000      0.3750000000      0.8750000000
      0.8750000000      0.1250000000      0.8750000000
      0.8750000000      0.3750000000      0.6250000000
      0.8750000000      0.3750000000      0.8750000000
      0.6250000000      0.6250000000      0.1250000000
      0.6250000000      0.6250000000      0.3750000000
      0.6250000000      0.8750000000      0.1250000000
      0.8750000000      0.6250000000      0.1250000000
      0.6250000000      0.8750000000      0.3750000000
      0.8750000000      0.6250000000      0.3750000000
      0.8750000000      0.8750000000      0.1250000000
      0.8750000000      0.8750000000      0.3750000000
      0.6250000000      0.6250000000      0.6250000000
      0.6250000000      0.6250000000      0.8750000000
      0.6250000000      0.8750000000      0.6250000000
      0.8750000000      0.6250000000      0.6250000000
      0.6250000000      0.8750000000      0.8750000000
      0.8750000000      0.6250000000      0.8750000000
      0.8750000000      0.8750000000      0.6250000000
      0.8750000000      0.8750000000      0.8750000000
